30605
29,98,150,254,358,500,535,554,571,604,860,883,950,1001,1036,1123,1160,1311,1335,1550,1633,1645,1864,1923,2013,2018,2146,2159,2330,2350,2539,2616,2693,2816,2861,2940,2989,3275,3317,3409,3426,3559,3575,3646,3744,3869,3880,3934,4004,4135,4211,4321,4507,4645,4680,4736,4932,4988
